1 1 100 8
0 200
0 200
0 200
0 200
0 200
0 200
0 200
0 200
  0 35 35 0  0 0 0
  1 41 49 0 10 1 8 1 2 4 8 16 32 64 128
  2 35 17 0  7 1 8 1 2 4 8 16 32 64 128
  3 55 45 0 13 1 8 1 2 4 8 16 32 64 128
  4 55 20 0 19 1 8 1 2 4 8 16 32 64 128
  5 15 30 0 26 1 8 1 2 4 8 16 32 64 128
  6 25 30 0  3 1 8 1 2 4 8 16 32 64 128
  7 20 50 0  5 1 8 1 2 4 8 16 32 64 128
  8 10 43 0  9 1 8 1 2 4 8 16 32 64 128
  9 55 60 0 16 1 8 1 2 4 8 16 32 64 128
 10 30 60 0 16 1 8 1 2 4 8 16 32 64 128
 11 20 65 0 12 1 8 1 2 4 8 16 32 64 128
 12 50 35 0 19 1 8 1 2 4 8 16 32 64 128
 13 30 25 0 23 1 8 1 2 4 8 16 32 64 128
 14 15 10 0 20 1 8 1 2 4 8 16 32 64 128
 15 30  5 0  8 1 8 1 2 4 8 16 32 64 128
 16 10 20 0 19 1 8 1 2 4 8 16 32 64 128
 17  5 30 0  2 1 8 1 2 4 8 16 32 64 128
 18 20 40 0 12 1 8 1 2 4 8 16 32 64 128
 19 15 60 0 17 1 8 1 2 4 8 16 32 64 128
 20 45 65 0  9 1 8 1 2 4 8 16 32 64 128
 21 45 20 0 11 1 8 1 2 4 8 16 32 64 128
 22 45 10 0 18 1 8 1 2 4 8 16 32 64 128
 23 55  5 0 29 1 8 1 2 4 8 16 32 64 128
 24 65 35 0  3 1 8 1 2 4 8 16 32 64 128
 25 65 20 0  6 1 8 1 2 4 8 16 32 64 128
 26 45 30 0 17 1 8 1 2 4 8 16 32 64 128
 27 35 40 0 16 1 8 1 2 4 8 16 32 64 128
 28 41 37 0 16 1 8 1 2 4 8 16 32 64 128
 29 64 42 0  9 1 8 1 2 4 8 16 32 64 128
 30 40 60 0 21 1 8 1 2 4 8 16 32 64 128
 31 31 52 0 27 1 8 1 2 4 8 16 32 64 128
 32 35 69 0 23 1 8 1 2 4 8 16 32 64 128
 33 53 52 0 11 1 8 1 2 4 8 16 32 64 128
 34 65 55 0 14 1 8 1 2 4 8 16 32 64 128
 35 63 65 0  8 1 8 1 2 4 8 16 32 64 128
 36  2 60 0  5 1 8 1 2 4 8 16 32 64 128
 37 20 20 0  8 1 8 1 2 4 8 16 32 64 128
 38  5  5 0 16 1 8 1 2 4 8 16 32 64 128
 39 60 12 0 31 1 8 1 2 4 8 16 32 64 128
 40 40 25 0  9 1 8 1 2 4 8 16 32 64 128
 41 42  7 0  5 1 8 1 2 4 8 16 32 64 128
 42 24 12 0  5 1 8 1 2 4 8 16 32 64 128
 43 23  3 0  7 1 8 1 2 4 8 16 32 64 128
 44 11 14 0 18 1 8 1 2 4 8 16 32 64 128
 45  6 38 0 16 1 8 1 2 4 8 16 32 64 128
 46  2 48 0  1 1 8 1 2 4 8 16 32 64 128
 47  8 56 0 27 1 8 1 2 4 8 16 32 64 128
 48 13 52 0 36 1 8 1 2 4 8 16 32 64 128
 49  6 68 0 30 1 8 1 2 4 8 16 32 64 128
 50 47 47 0 13 1 8 1 2 4 8 16 32 64 128
 51 49 58 0 10 1 8 1 2 4 8 16 32 64 128
 52 27 43 0  9 1 8 1 2 4 8 16 32 64 128
 53 37 31 0 14 1 8 1 2 4 8 16 32 64 128
 54 57 29 0 18 1 8 1 2 4 8 16 32 64 128
 55 63 23 0  2 1 8 1 2 4 8 16 32 64 128
 56 53 12 0  6 1 8 1 2 4 8 16 32 64 128
 57 32 12 0  7 1 8 1 2 4 8 16 32 64 128
 58 36 26 0 18 1 8 1 2 4 8 16 32 64 128
 59 21 24 0 28 1 8 1 2 4 8 16 32 64 128
 60 17 34 0  3 1 8 1 2 4 8 16 32 64 128
 61 12 24 0 13 1 8 1 2 4 8 16 32 64 128
 62 24 58 0 19 1 8 1 2 4 8 16 32 64 128
 63 27 69 0 10 1 8 1 2 4 8 16 32 64 128
 64 15 77 0  9 1 8 1 2 4 8 16 32 64 128
 65 62 77 0 20 1 8 1 2 4 8 16 32 64 128
 66 49 73 0 25 1 8 1 2 4 8 16 32 64 128
 67 67  5 0 25 1 8 1 2 4 8 16 32 64 128
 68 56 39 0 36 1 8 1 2 4 8 16 32 64 128
 69 37 47 0  6 1 8 1 2 4 8 16 32 64 128
 70 37 56 0  5 1 8 1 2 4 8 16 32 64 128
 71 57 68 0 15 1 8 1 2 4 8 16 32 64 128
 72 47 16 0 25 1 8 1 2 4 8 16 32 64 128
 73 44 17 0  9 1 8 1 2 4 8 16 32 64 128
 74 46 13 0  8 1 8 1 2 4 8 16 32 64 128
 75 49 11 0 18 1 8 1 2 4 8 16 32 64 128
 76 49 42 0 13 1 8 1 2 4 8 16 32 64 128
 77 53 43 0 14 1 8 1 2 4 8 16 32 64 128
 78 61 52 0  3 1 8 1 2 4 8 16 32 64 128
 79 57 48 0 23 1 8 1 2 4 8 16 32 64 128
 80 56 37 0  6 1 8 1 2 4 8 16 32 64 128
 81 55 54 0 26 1 8 1 2 4 8 16 32 64 128
 82 15 47 0 16 1 8 1 2 4 8 16 32 64 128
 83 14 37 0 11 1 8 1 2 4 8 16 32 64 128
 84 11 31 0  7 1 8 1 2 4 8 16 32 64 128
 85 16 22 0 41 1 8 1 2 4 8 16 32 64 128
 86  4 18 0 35 1 8 1 2 4 8 16 32 64 128
 87 28 18 0 26 1 8 1 2 4 8 16 32 64 128
 88 26 52 0  9 1 8 1 2 4 8 16 32 64 128
 89 26 35 0 15 1 8 1 2 4 8 16 32 64 128
 90 31 67 0  3 1 8 1 2 4 8 16 32 64 128
 91 15 19 0  1 1 8 1 2 4 8 16 32 64 128
 92 22 22 0  2 1 8 1 2 4 8 16 32 64 128
 93 18 24 0 22 1 8 1 2 4 8 16 32 64 128
 94 26 27 0 27 1 8 1 2 4 8 16 32 64 128
 95 25 24 0 20 1 8 1 2 4 8 16 32 64 128
 96 22 27 0 11 1 8 1 2 4 8 16 32 64 128
 97 25 21 0 12 1 8 1 2 4 8 16 32 64 128
 98 19 21 0 10 1 8 1 2 4 8 16 32 64 128
 99 20 26 0  9 1 8 1 2 4 8 16 32 64 128
100 18 18 0 17 1 8 1 2 4 8 16 32 64 128
